NAME /Users/henri/Research/solvers/instances/idol-instances/robust/collection/spp_dkp_Lefebvre_et_al_2026/shortest_path_11_9/models/uncertain_ctr/model
ROWS
 N  OBJ
 E  flow_cons_inner_nodes[0]
 E  flow_cons_inner_nodes[2]
 E  flow_cons_inner_nodes[3]
 E  flow_cons_inner_nodes[4]
 E  flow_cons_inner_nodes[6]
 E  flow_cons_inner_nodes[7]
 E  flow_cons_inner_nodes[8]
 E  flow_cons_inner_nodes[9]
 E  flow_cons_inner_nodes[10]
 E  flow_cons_source
 E  flow_cons_target
 G  c_13681
COLUMNS
    z          OBJ        1
    z          c_13681    1
    MARKER    'MARKER'                 'INTORG'
    y[0,2]     OBJ        0
    y[0,2]     c_13681    -35
    y[0,2]     flow_cons_inner_nodes[2] 1
    y[0,2]     flow_cons_inner_nodes[0] -1
    y[0,3]     OBJ        0
    y[0,3]     c_13681    -50.45
    y[0,3]     flow_cons_inner_nodes[3] 1
    y[0,3]     flow_cons_inner_nodes[0] -1
    y[0,4]     OBJ        0
    y[0,4]     c_13681    -19.92
    y[0,4]     flow_cons_inner_nodes[4] 1
    y[0,4]     flow_cons_inner_nodes[0] -1
    y[0,5]     OBJ        0
    y[0,5]     c_13681    -40.31
    y[0,5]     flow_cons_target 1
    y[0,5]     flow_cons_inner_nodes[0] -1
    y[0,7]     OBJ        0
    y[0,7]     c_13681    -39.4
    y[0,7]     flow_cons_inner_nodes[7] 1
    y[0,7]     flow_cons_inner_nodes[0] -1
    y[0,8]     OBJ        0
    y[0,8]     c_13681    -16.28
    y[0,8]     flow_cons_inner_nodes[8] 1
    y[0,8]     flow_cons_inner_nodes[0] -1
    y[0,10]    OBJ        0
    y[0,10]    c_13681    -34.13
    y[0,10]    flow_cons_inner_nodes[10] 1
    y[0,10]    flow_cons_inner_nodes[0] -1
    y[1,2]     OBJ        0
    y[1,2]     c_13681    -40.02
    y[1,2]     flow_cons_source 1
    y[1,2]     flow_cons_inner_nodes[2] 1
    y[1,3]     OBJ        0
    y[1,3]     flow_cons_source 1
    y[1,3]     c_13681    -12
    y[1,3]     flow_cons_inner_nodes[3] 1
    y[1,4]     OBJ        0
    y[1,4]     c_13681    -53.85
    y[1,4]     flow_cons_source 1
    y[1,4]     flow_cons_inner_nodes[4] 1
    y[1,6]     OBJ        0
    y[1,6]     c_13681    -53.49
    y[1,6]     flow_cons_source 1
    y[1,6]     flow_cons_inner_nodes[6] 1
    y[1,9]     OBJ        0
    y[1,9]     flow_cons_source 1
    y[1,9]     c_13681    -29.53
    y[1,9]     flow_cons_inner_nodes[9] 1
    y[1,10]    OBJ        0
    y[1,10]    c_13681    -25.81
    y[1,10]    flow_cons_source 1
    y[1,10]    flow_cons_inner_nodes[10] 1
    y[2,0]     OBJ        0
    y[2,0]     c_13681    -35
    y[2,0]     flow_cons_inner_nodes[2] -1
    y[2,0]     flow_cons_inner_nodes[0] 1
    y[2,1]     OBJ        0
    y[2,1]     c_13681    -40.02
    y[2,1]     flow_cons_source -1
    y[2,1]     flow_cons_inner_nodes[2] -1
    y[2,3]     OBJ        0
    y[2,3]     c_13681    -39.12
    y[2,3]     flow_cons_inner_nodes[3] 1
    y[2,3]     flow_cons_inner_nodes[2] -1
    y[2,4]     OBJ        0
    y[2,4]     c_13681    -45.19
    y[2,4]     flow_cons_inner_nodes[4] 1
    y[2,4]     flow_cons_inner_nodes[2] -1
    y[2,8]     OBJ        0
    y[2,8]     c_13681    -47.54
    y[2,8]     flow_cons_inner_nodes[8] 1
    y[2,8]     flow_cons_inner_nodes[2] -1
    y[2,9]     OBJ        0
    y[2,9]     c_13681    -55.66
    y[2,9]     flow_cons_inner_nodes[9] 1
    y[2,9]     flow_cons_inner_nodes[2] -1
    y[2,10]    OBJ        0
    y[2,10]    c_13681    -18.97
    y[2,10]    flow_cons_inner_nodes[10] 1
    y[2,10]    flow_cons_inner_nodes[2] -1
    y[3,0]     OBJ        0
    y[3,0]     c_13681    -50.45
    y[3,0]     flow_cons_inner_nodes[3] -1
    y[3,0]     flow_cons_inner_nodes[0] 1
    y[3,1]     OBJ        0
    y[3,1]     flow_cons_source -1
    y[3,1]     c_13681    -12
    y[3,1]     flow_cons_inner_nodes[3] -1
    y[3,2]     OBJ        0
    y[3,2]     c_13681    -39.12
    y[3,2]     flow_cons_inner_nodes[3] -1
    y[3,2]     flow_cons_inner_nodes[2] 1
    y[3,4]     OBJ        0
    y[3,4]     flow_cons_inner_nodes[4] 1
    y[3,4]     c_13681    -42.94
    y[3,4]     flow_cons_inner_nodes[3] -1
    y[3,6]     OBJ        0
    y[3,6]     flow_cons_inner_nodes[6] 1
    y[3,6]     c_13681    -42.49
    y[3,6]     flow_cons_inner_nodes[3] -1
    y[3,7]     OBJ        0
    y[3,7]     flow_cons_inner_nodes[7] 1
    y[3,7]     c_13681    -48.09
    y[3,7]     flow_cons_inner_nodes[3] -1
    y[3,8]     OBJ        0
    y[3,8]     flow_cons_inner_nodes[8] 1
    y[3,8]     c_13681    -50.77
    y[3,8]     flow_cons_inner_nodes[3] -1
    y[3,9]     OBJ        0
    y[3,9]     c_13681    -19.8
    y[3,9]     flow_cons_inner_nodes[9] 1
    y[3,9]     flow_cons_inner_nodes[3] -1
    y[3,10]    OBJ        0
    y[3,10]    flow_cons_inner_nodes[10] 1
    y[3,10]    c_13681    -21.21
    y[3,10]    flow_cons_inner_nodes[3] -1
    y[4,0]     OBJ        0
    y[4,0]     c_13681    -19.92
    y[4,0]     flow_cons_inner_nodes[4] -1
    y[4,0]     flow_cons_inner_nodes[0] 1
    y[4,1]     OBJ        0
    y[4,1]     c_13681    -53.85
    y[4,1]     flow_cons_source -1
    y[4,1]     flow_cons_inner_nodes[4] -1
    y[4,2]     OBJ        0
    y[4,2]     c_13681    -45.19
    y[4,2]     flow_cons_inner_nodes[4] -1
    y[4,2]     flow_cons_inner_nodes[2] 1
    y[4,3]     OBJ        0
    y[4,3]     flow_cons_inner_nodes[4] -1
    y[4,3]     c_13681    -42.94
    y[4,3]     flow_cons_inner_nodes[3] 1
    y[4,5]     OBJ        0
    y[4,5]     c_13681    -24.7
    y[4,5]     flow_cons_target 1
    y[4,5]     flow_cons_inner_nodes[4] -1
    y[4,6]     OBJ        0
    y[4,6]     c_13681    -39
    y[4,6]     flow_cons_inner_nodes[6] 1
    y[4,6]     flow_cons_inner_nodes[4] -1
    y[4,7]     OBJ        0
    y[4,7]     c_13681    -19.72
    y[4,7]     flow_cons_inner_nodes[7] 1
    y[4,7]     flow_cons_inner_nodes[4] -1
    y[4,8]     OBJ        0
    y[4,8]     c_13681    -8.6
    y[4,8]     flow_cons_inner_nodes[8] 1
    y[4,8]     flow_cons_inner_nodes[4] -1
    y[4,9]     OBJ        0
    y[4,9]     c_13681    -41.62
    y[4,9]     flow_cons_inner_nodes[9] 1
    y[4,9]     flow_cons_inner_nodes[4] -1
    y[4,10]    OBJ        0
    y[4,10]    c_13681    -35.01
    y[4,10]    flow_cons_inner_nodes[10] 1
    y[4,10]    flow_cons_inner_nodes[4] -1
    y[5,0]     OBJ        0
    y[5,0]     c_13681    -40.31
    y[5,0]     flow_cons_target -1
    y[5,0]     flow_cons_inner_nodes[0] 1
    y[5,4]     OBJ        0
    y[5,4]     c_13681    -24.7
    y[5,4]     flow_cons_target -1
    y[5,4]     flow_cons_inner_nodes[4] 1
    y[5,6]     OBJ        0
    y[5,6]     c_13681    -37.8
    y[5,6]     flow_cons_target -1
    y[5,6]     flow_cons_inner_nodes[6] 1
    y[5,7]     OBJ        0
    y[5,7]     c_13681    -15.26
    y[5,7]     flow_cons_target -1
    y[5,7]     flow_cons_inner_nodes[7] 1
    y[5,8]     OBJ        0
    y[5,8]     c_13681    -24.08
    y[5,8]     flow_cons_target -1
    y[5,8]     flow_cons_inner_nodes[8] 1
    y[5,9]     OBJ        0
    y[5,9]     flow_cons_target -1
    y[5,9]     c_13681    -53.24
    y[5,9]     flow_cons_inner_nodes[9] 1
    y[6,1]     OBJ        0
    y[6,1]     c_13681    -53.49
    y[6,1]     flow_cons_source -1
    y[6,1]     flow_cons_inner_nodes[6] -1
    y[6,3]     OBJ        0
    y[6,3]     flow_cons_inner_nodes[6] -1
    y[6,3]     c_13681    -42.49
    y[6,3]     flow_cons_inner_nodes[3] 1
    y[6,4]     OBJ        0
    y[6,4]     c_13681    -39
    y[6,4]     flow_cons_inner_nodes[6] -1
    y[6,4]     flow_cons_inner_nodes[4] 1
    y[6,5]     OBJ        0
    y[6,5]     c_13681    -37.8
    y[6,5]     flow_cons_target 1
    y[6,5]     flow_cons_inner_nodes[6] -1
    y[6,7]     OBJ        0
    y[6,7]     c_13681    -24.17
    y[6,7]     flow_cons_inner_nodes[7] 1
    y[6,7]     flow_cons_inner_nodes[6] -1
    y[6,8]     OBJ        0
    y[6,8]     c_13681    -46.27
    y[6,8]     flow_cons_inner_nodes[8] 1
    y[6,8]     flow_cons_inner_nodes[6] -1
    y[6,9]     OBJ        0
    y[6,9]     c_13681    -24.52
    y[6,9]     flow_cons_inner_nodes[9] 1
    y[6,9]     flow_cons_inner_nodes[6] -1
    y[6,10]    OBJ        0
    y[6,10]    c_13681    -53.15
    y[6,10]    flow_cons_inner_nodes[10] 1
    y[6,10]    flow_cons_inner_nodes[6] -1
    y[7,0]     OBJ        0
    y[7,0]     c_13681    -39.4
    y[7,0]     flow_cons_inner_nodes[7] -1
    y[7,0]     flow_cons_inner_nodes[0] 1
    y[7,3]     OBJ        0
    y[7,3]     flow_cons_inner_nodes[7] -1
    y[7,3]     c_13681    -48.09
    y[7,3]     flow_cons_inner_nodes[3] 1
    y[7,4]     OBJ        0
    y[7,4]     c_13681    -19.72
    y[7,4]     flow_cons_inner_nodes[7] -1
    y[7,4]     flow_cons_inner_nodes[4] 1
    y[7,5]     OBJ        0
    y[7,5]     c_13681    -15.26
    y[7,5]     flow_cons_target 1
    y[7,5]     flow_cons_inner_nodes[7] -1
    y[7,6]     OBJ        0
    y[7,6]     c_13681    -24.17
    y[7,6]     flow_cons_inner_nodes[7] -1
    y[7,6]     flow_cons_inner_nodes[6] 1
    y[7,8]     OBJ        0
    y[7,8]     c_13681    -24.52
    y[7,8]     flow_cons_inner_nodes[8] 1
    y[7,8]     flow_cons_inner_nodes[7] -1
    y[7,9]     OBJ        0
    y[7,9]     c_13681    -38.01
    y[7,9]     flow_cons_inner_nodes[9] 1
    y[7,9]     flow_cons_inner_nodes[7] -1
    y[7,10]    OBJ        0
    y[7,10]    c_13681    -48.47
    y[7,10]    flow_cons_inner_nodes[10] 1
    y[7,10]    flow_cons_inner_nodes[7] -1
    y[8,0]     OBJ        0
    y[8,0]     c_13681    -16.28
    y[8,0]     flow_cons_inner_nodes[8] -1
    y[8,0]     flow_cons_inner_nodes[0] 1
    y[8,2]     OBJ        0
    y[8,2]     c_13681    -47.54
    y[8,2]     flow_cons_inner_nodes[8] -1
    y[8,2]     flow_cons_inner_nodes[2] 1
    y[8,3]     OBJ        0
    y[8,3]     flow_cons_inner_nodes[8] -1
    y[8,3]     c_13681    -50.77
    y[8,3]     flow_cons_inner_nodes[3] 1
    y[8,4]     OBJ        0
    y[8,4]     c_13681    -8.6
    y[8,4]     flow_cons_inner_nodes[8] -1
    y[8,4]     flow_cons_inner_nodes[4] 1
    y[8,5]     OBJ        0
    y[8,5]     c_13681    -24.08
    y[8,5]     flow_cons_target 1
    y[8,5]     flow_cons_inner_nodes[8] -1
    y[8,6]     OBJ        0
    y[8,6]     c_13681    -46.27
    y[8,6]     flow_cons_inner_nodes[8] -1
    y[8,6]     flow_cons_inner_nodes[6] 1
    y[8,7]     OBJ        0
    y[8,7]     c_13681    -24.52
    y[8,7]     flow_cons_inner_nodes[8] -1
    y[8,7]     flow_cons_inner_nodes[7] 1
    y[8,9]     OBJ        0
    y[8,9]     c_13681    -50.22
    y[8,9]     flow_cons_inner_nodes[9] 1
    y[8,9]     flow_cons_inner_nodes[8] -1
    y[8,10]    OBJ        0
    y[8,10]    c_13681    -40.45
    y[8,10]    flow_cons_inner_nodes[10] 1
    y[8,10]    flow_cons_inner_nodes[8] -1
    y[9,1]     OBJ        0
    y[9,1]     flow_cons_source -1
    y[9,1]     c_13681    -29.53
    y[9,1]     flow_cons_inner_nodes[9] -1
    y[9,2]     OBJ        0
    y[9,2]     c_13681    -55.66
    y[9,2]     flow_cons_inner_nodes[9] -1
    y[9,2]     flow_cons_inner_nodes[2] 1
    y[9,3]     OBJ        0
    y[9,3]     c_13681    -19.8
    y[9,3]     flow_cons_inner_nodes[9] -1
    y[9,3]     flow_cons_inner_nodes[3] 1
    y[9,4]     OBJ        0
    y[9,4]     c_13681    -41.62
    y[9,4]     flow_cons_inner_nodes[9] -1
    y[9,4]     flow_cons_inner_nodes[4] 1
    y[9,5]     OBJ        0
    y[9,5]     flow_cons_target 1
    y[9,5]     c_13681    -53.24
    y[9,5]     flow_cons_inner_nodes[9] -1
    y[9,6]     OBJ        0
    y[9,6]     c_13681    -24.52
    y[9,6]     flow_cons_inner_nodes[9] -1
    y[9,6]     flow_cons_inner_nodes[6] 1
    y[9,7]     OBJ        0
    y[9,7]     c_13681    -38.01
    y[9,7]     flow_cons_inner_nodes[9] -1
    y[9,7]     flow_cons_inner_nodes[7] 1
    y[9,8]     OBJ        0
    y[9,8]     c_13681    -50.22
    y[9,8]     flow_cons_inner_nodes[9] -1
    y[9,8]     flow_cons_inner_nodes[8] 1
    y[9,10]    OBJ        0
    y[9,10]    flow_cons_inner_nodes[10] 1
    y[9,10]    c_13681    -36.69
    y[9,10]    flow_cons_inner_nodes[9] -1
    y[10,0]    OBJ        0
    y[10,0]    c_13681    -34.13
    y[10,0]    flow_cons_inner_nodes[10] -1
    y[10,0]    flow_cons_inner_nodes[0] 1
    y[10,1]    OBJ        0
    y[10,1]    c_13681    -25.81
    y[10,1]    flow_cons_source -1
    y[10,1]    flow_cons_inner_nodes[10] -1
    y[10,2]    OBJ        0
    y[10,2]    c_13681    -18.97
    y[10,2]    flow_cons_inner_nodes[10] -1
    y[10,2]    flow_cons_inner_nodes[2] 1
    y[10,3]    OBJ        0
    y[10,3]    flow_cons_inner_nodes[10] -1
    y[10,3]    c_13681    -21.21
    y[10,3]    flow_cons_inner_nodes[3] 1
    y[10,4]    OBJ        0
    y[10,4]    c_13681    -35.01
    y[10,4]    flow_cons_inner_nodes[10] -1
    y[10,4]    flow_cons_inner_nodes[4] 1
    y[10,6]    OBJ        0
    y[10,6]    c_13681    -53.15
    y[10,6]    flow_cons_inner_nodes[10] -1
    y[10,6]    flow_cons_inner_nodes[6] 1
    y[10,7]    OBJ        0
    y[10,7]    c_13681    -48.47
    y[10,7]    flow_cons_inner_nodes[10] -1
    y[10,7]    flow_cons_inner_nodes[7] 1
    y[10,8]    OBJ        0
    y[10,8]    c_13681    -40.45
    y[10,8]    flow_cons_inner_nodes[10] -1
    y[10,8]    flow_cons_inner_nodes[8] 1
    y[10,9]    OBJ        0
    y[10,9]    flow_cons_inner_nodes[10] -1
    y[10,9]    c_13681    -36.69
    y[10,9]    flow_cons_inner_nodes[9] 1
    MARKER    'MARKER'                 'INTEND'
RHS
    RHS       flow_cons_inner_nodes[0] -0
    RHS       flow_cons_inner_nodes[2] -0
    RHS       flow_cons_inner_nodes[3] -0
    RHS       flow_cons_inner_nodes[4] -0
    RHS       flow_cons_inner_nodes[6] -0
    RHS       flow_cons_inner_nodes[7] -0
    RHS       flow_cons_inner_nodes[8] -0
    RHS       flow_cons_inner_nodes[9] -0
    RHS       flow_cons_inner_nodes[10] -0
    RHS       flow_cons_source 1
    RHS       flow_cons_target 1
    RHS       c_13681    -0
BOUNDS
 LI BND       y[0,2]     0
 UI BND       y[0,2]     1
 LI BND       y[0,3]     0
 UI BND       y[0,3]     1
 LI BND       y[0,4]     0
 UI BND       y[0,4]     1
 LI BND       y[0,5]     0
 UI BND       y[0,5]     1
 LI BND       y[0,7]     0
 UI BND       y[0,7]     1
 LI BND       y[0,8]     0
 UI BND       y[0,8]     1
 LI BND       y[0,10]    0
 UI BND       y[0,10]    1
 LI BND       y[1,2]     0
 UI BND       y[1,2]     1
 LI BND       y[1,3]     0
 UI BND       y[1,3]     1
 LI BND       y[1,4]     0
 UI BND       y[1,4]     1
 LI BND       y[1,6]     0
 UI BND       y[1,6]     1
 LI BND       y[1,9]     0
 UI BND       y[1,9]     1
 LI BND       y[1,10]    0
 UI BND       y[1,10]    1
 LI BND       y[2,0]     0
 UI BND       y[2,0]     1
 LI BND       y[2,1]     0
 UI BND       y[2,1]     1
 LI BND       y[2,3]     0
 UI BND       y[2,3]     1
 LI BND       y[2,4]     0
 UI BND       y[2,4]     1
 LI BND       y[2,8]     0
 UI BND       y[2,8]     1
 LI BND       y[2,9]     0
 UI BND       y[2,9]     1
 LI BND       y[2,10]    0
 UI BND       y[2,10]    1
 LI BND       y[3,0]     0
 UI BND       y[3,0]     1
 LI BND       y[3,1]     0
 UI BND       y[3,1]     1
 LI BND       y[3,2]     0
 UI BND       y[3,2]     1
 LI BND       y[3,4]     0
 UI BND       y[3,4]     1
 LI BND       y[3,6]     0
 UI BND       y[3,6]     1
 LI BND       y[3,7]     0
 UI BND       y[3,7]     1
 LI BND       y[3,8]     0
 UI BND       y[3,8]     1
 LI BND       y[3,9]     0
 UI BND       y[3,9]     1
 LI BND       y[3,10]    0
 UI BND       y[3,10]    1
 LI BND       y[4,0]     0
 UI BND       y[4,0]     1
 LI BND       y[4,1]     0
 UI BND       y[4,1]     1
 LI BND       y[4,2]     0
 UI BND       y[4,2]     1
 LI BND       y[4,3]     0
 UI BND       y[4,3]     1
 LI BND       y[4,5]     0
 UI BND       y[4,5]     1
 LI BND       y[4,6]     0
 UI BND       y[4,6]     1
 LI BND       y[4,7]     0
 UI BND       y[4,7]     1
 LI BND       y[4,8]     0
 UI BND       y[4,8]     1
 LI BND       y[4,9]     0
 UI BND       y[4,9]     1
 LI BND       y[4,10]    0
 UI BND       y[4,10]    1
 LI BND       y[5,0]     0
 UI BND       y[5,0]     1
 LI BND       y[5,4]     0
 UI BND       y[5,4]     1
 LI BND       y[5,6]     0
 UI BND       y[5,6]     1
 LI BND       y[5,7]     0
 UI BND       y[5,7]     1
 LI BND       y[5,8]     0
 UI BND       y[5,8]     1
 LI BND       y[5,9]     0
 UI BND       y[5,9]     1
 LI BND       y[6,1]     0
 UI BND       y[6,1]     1
 LI BND       y[6,3]     0
 UI BND       y[6,3]     1
 LI BND       y[6,4]     0
 UI BND       y[6,4]     1
 LI BND       y[6,5]     0
 UI BND       y[6,5]     1
 LI BND       y[6,7]     0
 UI BND       y[6,7]     1
 LI BND       y[6,8]     0
 UI BND       y[6,8]     1
 LI BND       y[6,9]     0
 UI BND       y[6,9]     1
 LI BND       y[6,10]    0
 UI BND       y[6,10]    1
 LI BND       y[7,0]     0
 UI BND       y[7,0]     1
 LI BND       y[7,3]     0
 UI BND       y[7,3]     1
 LI BND       y[7,4]     0
 UI BND       y[7,4]     1
 LI BND       y[7,5]     0
 UI BND       y[7,5]     1
 LI BND       y[7,6]     0
 UI BND       y[7,6]     1
 LI BND       y[7,8]     0
 UI BND       y[7,8]     1
 LI BND       y[7,9]     0
 UI BND       y[7,9]     1
 LI BND       y[7,10]    0
 UI BND       y[7,10]    1
 LI BND       y[8,0]     0
 UI BND       y[8,0]     1
 LI BND       y[8,2]     0
 UI BND       y[8,2]     1
 LI BND       y[8,3]     0
 UI BND       y[8,3]     1
 LI BND       y[8,4]     0
 UI BND       y[8,4]     1
 LI BND       y[8,5]     0
 UI BND       y[8,5]     1
 LI BND       y[8,6]     0
 UI BND       y[8,6]     1
 LI BND       y[8,7]     0
 UI BND       y[8,7]     1
 LI BND       y[8,9]     0
 UI BND       y[8,9]     1
 LI BND       y[8,10]    0
 UI BND       y[8,10]    1
 LI BND       y[9,1]     0
 UI BND       y[9,1]     1
 LI BND       y[9,2]     0
 UI BND       y[9,2]     1
 LI BND       y[9,3]     0
 UI BND       y[9,3]     1
 LI BND       y[9,4]     0
 UI BND       y[9,4]     1
 LI BND       y[9,5]     0
 UI BND       y[9,5]     1
 LI BND       y[9,6]     0
 UI BND       y[9,6]     1
 LI BND       y[9,7]     0
 UI BND       y[9,7]     1
 LI BND       y[9,8]     0
 UI BND       y[9,8]     1
 LI BND       y[9,10]    0
 UI BND       y[9,10]    1
 LI BND       y[10,0]    0
 UI BND       y[10,0]    1
 LI BND       y[10,1]    0
 UI BND       y[10,1]    1
 LI BND       y[10,2]    0
 UI BND       y[10,2]    1
 LI BND       y[10,3]    0
 UI BND       y[10,3]    1
 LI BND       y[10,4]    0
 UI BND       y[10,4]    1
 LI BND       y[10,6]    0
 UI BND       y[10,6]    1
 LI BND       y[10,7]    0
 UI BND       y[10,7]    1
 LI BND       y[10,8]    0
 UI BND       y[10,8]    1
 LI BND       y[10,9]    0
 UI BND       y[10,9]    1
 LO BND       z          0
 UP BND       z          3793.28
ENDATA
